Minimize
 + xt_0 + yt_0 -  w_r_1 -  w_l_1 + xt_1 + yt_1 + xt_2 + yt_2 -  w_l_3 + xt_3 + yt_3 -  w_l_4 + xt_4 + yt_4 + xt_5 + yt_5 -  w_l_6 + xt_6 + yt_6 + xt_7 + yt_7 -  w_r_8 -  w_l_8 + xt_8 + yt_8 -  w_l_9 + xt_9 + yt_9

Subject To
1 y_0 + -1 x_0  <= 13.7808
0 y_0 + 1 x_0  <= 121.43
1 y_0 + -0 x_0  <= 135.87
1 y_0 + -1 x_0  <= 14.4308
1 y_0 + -1 x_0  <= 14.3936
x_0 - xt_0 <= 121.71
x_0 + xt_0 >= 121.71
y_0 - yt_0 <= 135.85
y_0 + yt_0 >= 135.85
0 y_1 + 1 x_1  >= 127.565
1 y_1 + 0 x_1  - w_l_1 >= 138.004
1 y_1 + 0 x_1  - w_l_1 >= 138.03
1 y_1 + -0 x_1  + w_r_1 <= 137.796
1 y_1 + -1 x_1  <= 10.7186
x_1 - xt_1 <= 127.285
x_1 + xt_1 >= 127.285
y_1 - yt_1 <= 137.75
y_1 + yt_1 >= 137.75
1 y_2 + -0 x_2  <= 136.87
1 y_2 + 1 x_2  >= 269.069
1 y_2 + -0 x_2  <= 137.17
1 y_2 + 1 x_2  <= 269.801
x_2 - xt_2 <= 131.56
x_2 + xt_2 >= 131.56
y_2 - yt_2 <= 137.15
y_2 + yt_2 >= 137.15
1 y_3 + 0 x_3  - w_l_3 >= 136.804
x_3 - xt_3 <= 132.985
x_3 + xt_3 >= 132.985
y_3 - yt_3 <= 136.55
y_3 + yt_3 >= 136.55
1 y_4 + -0 x_4  - w_l_4 >= 138.03
1 y_4 + 0 x_4  - w_l_4 >= 138.004
1 y_4 + 0 x_4  - w_l_4 >= 138.03
1 y_4 + 0 x_4  - w_l_4 >= 138.304
1 y_4 + -0 x_4  - w_l_4 >= 138.33
0 y_4 + 1 x_4  <= 127.405
x_4 - xt_4 <= 127.685
x_4 + xt_4 >= 127.685
y_4 - yt_4 <= 138.05
y_4 + yt_4 >= 138.05
1 y_5 + -1 x_5  >= 14.4992
0 y_5 + 1 x_5  <= 121.755
1 y_5 + -0 x_5  <= 136.195
1 y_5 + -1 x_5  <= 14.4308
0 y_5 + 1 x_5  >= 121.965
x_5 - xt_5 <= 121.685
x_5 + xt_5 >= 121.685
y_5 - yt_5 <= 136.475
y_5 + yt_5 >= 136.475
1 y_6 + -1 x_6  >= 14.6864
0 y_6 + 1 x_6  <= 119.68
1 y_6 + 0 x_6  - w_l_6 >= 135.154
x_6 - xt_6 <= 119.96
x_6 + xt_6 >= 119.96
y_6 - yt_6 <= 134.9
y_6 + yt_6 >= 134.9
1 y_7 + 1 x_7  >= 270.669
1 y_7 + 1 x_7  >= 270.519
0 y_7 + 1 x_7  >= 133.165
x_7 - xt_7 <= 132.885
x_7 + xt_7 >= 132.885
y_7 - yt_7 <= 137.425
y_7 + yt_7 >= 137.425
1 y_8 + 1 x_8  >= 269.069
1 y_8 + -1 x_8  + w_r_8 <= 4.99359
1 y_8 + -1 x_8  - w_l_8 >= 5.59921
1 y_8 + 1 x_8  >= 270.519
0 y_8 + 1 x_8  <= 132.105
x_8 - xt_8 <= 132.385
x_8 + xt_8 >= 132.385
y_8 - yt_8 <= 137.775
y_8 + yt_8 >= 137.775
1 y_9 + -1 x_9  >= 5.16141
0 y_9 + 1 x_9  >= 133.015
1 y_9 + 0 x_9  - w_l_9 >= 137.754
x_9 - xt_9 <= 132.735
x_9 + xt_9 >= 132.735
y_9 - yt_9 <= 137.5
y_9 + yt_9 >= 137.5
29.2158 - 1 - 1 - 7.874 w_r_1 - 7.874 w_l_1 - 1 - 1 - 7.874 w_l_3 - 1 - 7.874 w_l_4 - 1 - 1 - 7.874 w_l_6 - 1 - 1 - 7.874 w_r_8 - 7.874 w_l_8 - 1 - 7.874 w_l_9 >= 0

Bounds
x_0 >= 0
xt_0 <= 3
y_0 >= 0
yt_0 <= 3
x_1 >= 0
xt_1 <= 3
y_1 >= 0
yt_1 <= 3
w_l_1 >= 0
w_l_1 <= 10
w_l_1 >= 0
w_l_1 <= 10
w_r_1 >= 0
w_r_1 <= 10
x_2 >= 0
xt_2 <= 3
y_2 >= 0
yt_2 <= 3
x_3 >= 0
xt_3 <= 3
y_3 >= 0
yt_3 <= 3
w_l_3 >= 0
w_l_3 <= 10
x_4 >= 0
xt_4 <= 3
y_4 >= 0
yt_4 <= 3
w_l_4 >= 0
w_l_4 <= 10
w_l_4 >= 0
w_l_4 <= 10
w_l_4 >= 0
w_l_4 <= 10
w_l_4 >= 0
w_l_4 <= 10
w_l_4 >= 0
w_l_4 <= 10
x_5 >= 0
xt_5 <= 3
y_5 >= 0
yt_5 <= 3
x_6 >= 0
xt_6 <= 3
y_6 >= 0
yt_6 <= 3
w_l_6 >= 0
w_l_6 <= 10
x_7 >= 0
xt_7 <= 3
y_7 >= 0
yt_7 <= 3
x_8 >= 0
xt_8 <= 3
y_8 >= 0
yt_8 <= 3
w_r_8 >= 0
w_r_8 <= 10
w_l_8 >= 0
w_l_8 <= 10
x_9 >= 0
xt_9 <= 3
y_9 >= 0
yt_9 <= 3
w_l_9 >= 0
w_l_9 <= 10
End
